true true true
feasible solution found by trivial heuristic after 0.0 seconds, objective value 5.700000e+01
presolving:
presolving (0 rounds: 0 fast, 0 medium, 0 exhaustive):
 0 deleted vars, 0 deleted constraints, 0 added constraints, 0 tightened bounds, 0 added holes, 0 changed sides, 0 changed coefficients
 0 implications, 0 cliques
presolved problem has 57 variables (57 bin, 0 int, 0 impl, 0 cont) and 48 constraints
     48 constraints of type <linear>
transformed objective value is always integral (scale: 1)
Presolving Time: 0.00
transformed 1/1 original solutions to the transformed problem space

 time | node  | left  |LP iter|LP it/n|mem/heur|mdpt |vars |cons |rows |cuts |sepa|confs|strbr|  dualbound   | primalbound  |  gap   | compl. 
p 0.0s|     1 |     0 |     0 |     - |   locks|   0 |  57 |  48 |  48 |   0 |  0 |   0 |   0 |      --      | 9.000000e+00 |    Inf | unknown
 time | node  | left  |LP iter|LP it/n|mem/heur|mdpt |vars |cons |rows |cuts |sepa|confs|strbr|  dualbound   | primalbound  |  gap   | compl. 
  0.0s|     1 |     0 |    23 |     - |  1422k |   0 | 265 |  48 |  48 |   0 |  0 |   0 |   0 | 1.000000e+00 | 9.000000e+00 | 800.00%| unknown
 time | node  | left  |LP iter|LP it/n|mem/heur|mdpt |vars |cons |rows |cuts |sepa|confs|strbr|  dualbound   | primalbound  |  gap   | compl. 
  0.3s|     1 |     0 |   473 |     - |  6307k |   0 |1961 |  48 |  48 |   0 |  0 |   0 |   0 | 8.000000e+00 | 9.000000e+00 |  12.50%| unknown
 time | node  | left  |LP iter|LP it/n|mem/heur|mdpt |vars |cons |rows |cuts |sepa|confs|strbr|  dualbound   | primalbound  |  gap   | compl. 
  0.4s|     1 |     2 |   633 |     - |  7141k |   0 |1961 |  48 |  48 |   0 |  1 |   0 |   0 | 8.000000e+00 | 9.000000e+00 |  12.50%| unknown
 time | node  | left  |LP iter|LP it/n|mem/heur|mdpt |vars |cons |rows |cuts |sepa|confs|strbr|  dualbound   | primalbound  |  gap   | compl. 
  0.4s|     2 |     3 |   639 |   6.0 |  7207k |   1 |1961 |  48 |  48 |   0 |  1 |   0 |   0 | 8.000000e+00 | 9.000000e+00 |  12.50%| unknown
 time | node  | left  |LP iter|LP it/n|mem/heur|mdpt |vars |cons |rows |cuts |sepa|confs|strbr|  dualbound   | primalbound  |  gap   | compl. 
  0.4s|     3 |     4 |   646 |   6.5 |  7212k |   2 |1961 |  48 |  48 |   0 |  1 |   0 |   0 | 8.000000e+00 | 9.000000e+00 |  12.50%| unknown
 time | node  | left  |LP iter|LP it/n|mem/heur|mdpt |vars |cons |rows |cuts |sepa|confs|strbr|  dualbound   | primalbound  |  gap   | compl. 
  0.4s|     4 |     5 |   680 |  15.7 |  7677k |   3 |1961 |  48 |  48 |   0 |  1 |   0 |   0 | 8.000000e+00 | 9.000000e+00 |  12.50%| unknown
 time | node  | left  |LP iter|LP it/n|mem/heur|mdpt |vars |cons |rows |cuts |sepa|confs|strbr|  dualbound   | primalbound  |  gap   | compl. 
  0.5s|     5 |     6 |   691 |  14.5 |  7932k |   3 |1961 |  48 |  48 |   0 |  1 |   0 |   0 | 8.000000e+00 | 9.000000e+00 |  12.50%| unknown
 time | node  | left  |LP iter|LP it/n|mem/heur|mdpt |vars |cons |rows |cuts |sepa|confs|strbr|  dualbound   | primalbound  |  gap   | compl. 
  0.6s|     6 |     7 |   706 |  14.6 |  7956k |   4 |1961 |  48 |  48 |   0 |  1 |   0 |   0 | 8.000000e+00 | 9.000000e+00 |  12.50%| unknown
 time | node  | left  |LP iter|LP it/n|mem/heur|mdpt |vars |cons |rows |cuts |sepa|confs|strbr|  dualbound   | primalbound  |  gap   | compl. 
  0.7s|     7 |     8 |   739 |  17.7 |  8220k |   4 |1961 |  48 |  48 |   0 |  1 |   0 |   0 | 8.000000e+00 | 9.000000e+00 |  12.50%| unknown
 time | node  | left  |LP iter|LP it/n|mem/heur|mdpt |vars |cons |rows |cuts |sepa|confs|strbr|  dualbound   | primalbound  |  gap   | compl. 
  0.8s|     8 |     9 |   801 |  24.0 |  9164k |   5 |1991 |  48 |  48 |   0 |  1 |   0 |   0 | 8.000000e+00 | 9.000000e+00 |  12.50%| unknown
 time | node  | left  |LP iter|LP it/n|mem/heur|mdpt |vars |cons |rows |cuts |sepa|confs|strbr|  dualbound   | primalbound  |  gap   | compl. 
  1.0s|     9 |     8 |   870 |  29.6 |  9167k |   5 |2036 |  48 |  48 |   0 |  0 |   0 |   0 | 8.000000e+00 | 9.000000e+00 |  12.50%| unknown
 time | node  | left  |LP iter|LP it/n|mem/heur|mdpt |vars |cons |rows |cuts |sepa|confs|strbr|  dualbound   | primalbound  |  gap   | compl. 
  1.2s|    10 |     7 |   963 |  36.7 |  9223k |   5 |2087 |  48 |  48 |   0 |  0 |   0 |   0 | 8.000000e+00 | 9.000000e+00 |  12.50%|   1.15%
 time | node  | left  |LP iter|LP it/n|mem/heur|mdpt |vars |cons |rows |cuts |sepa|confs|strbr|  dualbound   | primalbound  |  gap   | compl. 
  1.3s|    11 |     8 |  1257 |  62.4 |  9681k |   5 |2087 |  48 |  48 |   0 |  1 |   0 |   0 | 8.000000e+00 | 9.000000e+00 |  12.50%|  10.31%
 time | node  | left  |LP iter|LP it/n|mem/heur|mdpt |vars |cons |rows |cuts |sepa|confs|strbr|  dualbound   | primalbound  |  gap   | compl. 
  1.3s|    12 |     9 |  1309 |  61.5 |    10M |   5 |2087 |  48 |  48 |   0 |  1 |   0 |   0 | 8.000000e+00 | 9.000000e+00 |  12.50%|  10.31%
 time | node  | left  |LP iter|LP it/n|mem/heur|mdpt |vars |cons |rows |cuts |sepa|confs|strbr|  dualbound   | primalbound  |  gap   | compl. 
  1.4s|    13 |    10 |  1343 |  59.2 |    10M |   5 |2090 |  48 |  48 |   0 |  1 |   0 |   0 | 8.000000e+00 | 9.000000e+00 |  12.50%|  10.31%
 time | node  | left  |LP iter|LP it/n|mem/heur|mdpt |vars |cons |rows |cuts |sepa|confs|strbr|  dualbound   | primalbound  |  gap   | compl. 
  1.5s|    14 |    11 |  1409 |  59.7 |    10M |   6 |2129 |  48 |  48 |   0 |  1 |   0 |   0 | 8.000000e+00 | 9.000000e+00 |  12.50%|  10.31%
 time | node  | left  |LP iter|LP it/n|mem/heur|mdpt |vars |cons |rows |cuts |sepa|confs|strbr|  dualbound   | primalbound  |  gap   | compl. 
  1.6s|    15 |    12 |  1439 |  57.6 |    10M |   7 |2135 |  48 |  48 |   0 |  1 |   0 |   0 | 8.000000e+00 | 9.000000e+00 |  12.50%|  10.31%
 time | node  | left  |LP iter|LP it/n|mem/heur|mdpt |vars |cons |rows |cuts |sepa|confs|strbr|  dualbound   | primalbound  |  gap   | compl. 
  1.7s|    16 |    13 |  1562 |  61.9 |    10M |   7 |2135 |  48 |  48 |   0 |  1 |   0 |   0 | 8.000000e+00 | 9.000000e+00 |  12.50%|  10.31%
 time | node  | left  |LP iter|LP it/n|mem/heur|mdpt |vars |cons |rows |cuts |sepa|confs|strbr|  dualbound   | primalbound  |  gap   | compl. 
  1.8s|    17 |    14 |  1604 |  60.7 |    10M |   7 |2154 |  48 |  48 |   0 |  1 |   0 |   0 | 8.000000e+00 | 9.000000e+00 |  12.50%|  10.31%
 time | node  | left  |LP iter|LP it/n|mem/heur|mdpt |vars |cons |rows |cuts |sepa|confs|strbr|  dualbound   | primalbound  |  gap   | compl. 
  2.0s|    18 |    15 |  1637 |  59.1 |    10M |   7 |2172 |  48 |  48 |   0 |  1 |   0 |   0 | 8.000000e+00 | 9.000000e+00 |  12.50%|  10.31%
 time | node  | left  |LP iter|LP it/n|mem/heur|mdpt |vars |cons |rows |cuts |sepa|confs|strbr|  dualbound   | primalbound  |  gap   | compl. 
  2.1s|    19 |    16 |  1654 |  56.7 |    11M |   8 |2175 |  48 |  48 |   0 |  1 |   0 |   0 | 8.000000e+00 | 9.000000e+00 |  12.50%|  10.31%
 time | node  | left  |LP iter|LP it/n|mem/heur|mdpt |vars |cons |rows |cuts |sepa|confs|strbr|  dualbound   | primalbound  |  gap   | compl. 
  2.2s|    20 |    17 |  1657 |  53.9 |    11M |   9 |2175 |  48 |  48 |   0 |  1 |   0 |   0 | 8.000000e+00 | 9.000000e+00 |  12.50%|  10.31%
 time | node  | left  |LP iter|LP it/n|mem/heur|mdpt |vars |cons |rows |cuts |sepa|confs|strbr|  dualbound   | primalbound  |  gap   | compl. 
  2.3s|    21 |    18 |  1660 |  51.4 |    11M |  10 |2175 |  48 |  48 |   0 |  1 |   0 |   0 | 8.000000e+00 | 9.000000e+00 |  12.50%|  10.31%
 time | node  | left  |LP iter|LP it/n|mem/heur|mdpt |vars |cons |rows |cuts |sepa|confs|strbr|  dualbound   | primalbound  |  gap   | compl. 
  2.5s|    22 |    17 |  1700 |  50.8 |    11M |  11 |2191 |  48 |  48 |   0 |  0 |   0 |   0 | 8.000000e+00 | 9.000000e+00 |  12.50%|  10.31%
 time | node  | left  |LP iter|LP it/n|mem/heur|mdpt |vars |cons |rows |cuts |sepa|confs|strbr|  dualbound   | primalbound  |  gap   | compl. 
  2.7s|    23 |    16 |  1721 |  49.5 |    11M |  11 |2191 |  48 |  48 |   0 |  0 |   0 |   0 | 8.000000e+00 | 9.000000e+00 |  12.50%|  10.33%
 time | node  | left  |LP iter|LP it/n|mem/heur|mdpt |vars |cons |rows |cuts |sepa|confs|strbr|  dualbound   | primalbound  |  gap   | compl. 
  2.8s|    24 |    15 |  1766 |  49.3 |    11M |  11 |2204 |  48 |  48 |   0 |  0 |   0 |   0 | 8.000000e+00 | 9.000000e+00 |  12.50%|  10.35%
 time | node  | left  |LP iter|LP it/n|mem/heur|mdpt |vars |cons |rows |cuts |sepa|confs|strbr|  dualbound   | primalbound  |  gap   | compl. 
  3.0s|    25 |    14 |  1820 |  49.5 |    11M |  11 |2233 |  48 |  48 |   0 |  0 |   0 |   0 | 8.000000e+00 | 9.000000e+00 |  12.50%|  10.39%
 time | node  | left  |LP iter|LP it/n|mem/heur|mdpt |vars |cons |rows |cuts |sepa|confs|strbr|  dualbound   | primalbound  |  gap   | compl. 
  3.2s|    26 |    13 |  1840 |  48.3 |    11M |  11 |2233 |  48 |  48 |   0 |  0 |   0 |   0 | 8.000000e+00 | 9.000000e+00 |  12.50%|  10.46%
 time | node  | left  |LP iter|LP it/n|mem/heur|mdpt |vars |cons |rows |cuts |sepa|confs|strbr|  dualbound   | primalbound  |  gap   | compl. 
  3.3s|    27 |    12 |  1870 |  47.6 |    11M |  11 |2233 |  48 |  48 |   0 |  0 |   0 |   0 | 8.000000e+00 | 9.000000e+00 |  12.50%|  10.60%
 time | node  | left  |LP iter|LP it/n|mem/heur|mdpt |vars |cons |rows |cuts |sepa|confs|strbr|  dualbound   | primalbound  |  gap   | compl. 
  3.3s|    28 |    13 |  1881 |  46.2 |    11M |  11 |2233 |  48 |  48 |   0 |  1 |   0 |   0 | 8.000000e+00 | 9.000000e+00 |  12.50%|  10.89%
 time | node  | left  |LP iter|LP it/n|mem/heur|mdpt |vars |cons |rows |cuts |sepa|confs|strbr|  dualbound   | primalbound  |  gap   | compl. 
  3.4s|    29 |    14 |  2084 |  51.8 |    11M |  11 |2233 |  48 |  48 |   0 |  1 |   0 |   0 | 8.000000e+00 | 9.000000e+00 |  12.50%|  10.89%
 time | node  | left  |LP iter|LP it/n|mem/heur|mdpt |vars |cons |rows |cuts |sepa|confs|strbr|  dualbound   | primalbound  |  gap   | compl. 
  3.5s|    30 |    13 |  2124 |  51.4 |    11M |  11 |2239 |  48 |  48 |   0 |  0 |   0 |   0 | 8.000000e+00 | 9.000000e+00 |  12.50%|  10.89%
 time | node  | left  |LP iter|LP it/n|mem/heur|mdpt |vars |cons |rows |cuts |sepa|confs|strbr|  dualbound   | primalbound  |  gap   | compl. 
  3.6s|    31 |    14 |  2169 |  51.2 |    11M |  11 |2239 |  48 |  48 |   0 |  1 |   0 |   0 | 8.000000e+00 | 9.000000e+00 |  12.50%|  11.03%
 time | node  | left  |LP iter|LP it/n|mem/heur|mdpt |vars |cons |rows |cuts |sepa|confs|strbr|  dualbound   | primalbound  |  gap   | compl. 
r 3.8s|    32 |     0 |  2217 |  51.1 |simplero|  11 |2270 |  48 |  48 |   0 |  0 |   0 |   0 | 8.000000e+00 | 8.000000e+00 |   0.00%|  99.71%

SCIP Status        : problem is solved [optimal solution found]
Solving Time (sec) : 3.77
Solving Nodes      : 32
Primal Bound       : +8.00000000000000e+00 (61 solutions)
Dual Bound         : +8.00000000000000e+00
Gap                : 0.00 %
Running with parallel: True bidir: True symbreak: True
Number of Nodes:  48
47.12185329861111% holds
starting cheapest insertion heuristic
Heuristic without TSP improvement:  9
Heuristic without TSP improvement time:  0.1
Heuristic Sol:  9
Heuristic total time:  0.1
[[11, 3, 4, 12, 2, 8], [10, 29, 41, 35, 6], [47, 36, 32, 46, 26, 45], [44, 5, 38, 17, 7, 21, 25], [43, 33], [42, 15, 40, 30, 27], [39, 37, 9, 14, 23, 24, 22, 16, 1], [34, 13, 20], [31, 18, 19, 28, 0]]
Instance path:  /home/htc/mghannam/SCRATCH/lccp-rust/data/at84_ftv47.npcc
Timelimit:  7200
Heuristic without TSP improvement:  9
Heuristic without TSP improvement time:  0.1
Heuristic Sol:  9
Heuristic total time:  0.2
at 1 zero_duals: 39
at1, LP obj: 9.0 n_added_paths: 208
at 1 zero_duals: 39
at1, LP obj: 9.0 n_added_paths: 15
at 1 zero_duals: 26
at1, LP obj: 9.0 n_added_paths: 93
at 1 zero_duals: 23
at1, LP obj: 9.0 n_added_paths: 90
at 1 zero_duals: 15
at1, LP obj: 9.0 n_added_paths: 327
at 1 zero_duals: 18
at1, LP obj: 8.75 n_added_paths: 329
at 1 zero_duals: 12
at1, LP obj: 8.666666666666666 n_added_paths: 401
at 1 zero_duals: 5
at1, LP obj: 8.263157894736842 n_added_paths: 246
at 1 zero_duals: 9
at1, LP obj: 8.099415204678364 n_added_paths: 119
at 1 zero_duals: 5
at1, LP obj: 7.979472140762463 n_added_paths: 20
at 1 zero_duals: 5
at1, LP obj: 7.95 n_added_paths: 14
at 1 zero_duals: 5
Switching to elementary pricing
at1, LP obj: 7.95 n_added_paths: 42
updated lowerbound from 1.0 to 8
Gap too small = 0, stopping pricing with lb = 8
Gap too small = 0, stopping pricing with lb = 8
Gap too small = 0, stopping pricing with lb = 8
Gap too small = 0, stopping pricing with lb = 8
Gap too small = 0, stopping pricing with lb = 8
Gap too small = 0, stopping pricing with lb = 8
Gap too small = 0, stopping pricing with lb = 8
at 14 zero_duals: 11
at14, LP obj: 8.05 n_added_paths: 13
at 14 zero_duals: 8
at14, LP obj: 8.025974025974026 n_added_paths: 12
at 14 zero_duals: 7
at14, LP obj: 8.006828057107388 n_added_paths: 5
Gap too small = 0, stopping pricing with lb = 8
at 15 zero_duals: 11
at15, LP obj: 8.155555555555555 n_added_paths: 19
at 15 zero_duals: 8
Switching to elementary pricing
at15, LP obj: 8.113970588235293 n_added_paths: 23
at 15 zero_duals: 12
Switching to elementary pricing
at15, LP obj: 8.059493670886075 n_added_paths: 3
at 15 zero_duals: 11
Switching to elementary pricing
at15, LP obj: 8.05 n_added_paths: 0
updated lowerbound from 8.0 to 9
at 5 zero_duals: 9
Switching to elementary pricing
at5, LP obj: 8.069767441860465 n_added_paths: 44
at 5 zero_duals: 9
Switching to elementary pricing
at5, LP obj: 8.040772532188841 n_added_paths: 3
at 5 zero_duals: 9
at5, LP obj: 8.037878787878787 n_added_paths: 1
at 5 zero_duals: 9
Switching to elementary pricing
at5, LP obj: 8.037037037037038 n_added_paths: 3
updated lowerbound from 8.0 to 9
Gap too small = 0, stopping pricing with lb = 8
Gap too small = 0, stopping pricing with lb = 8
at 20 zero_duals: 6
at20, LP obj: 8.001620745542949 n_added_paths: 3
Gap too small = 0, stopping pricing with lb = 8
at 22 zero_duals: 7
at22, LP obj: 8.037974683544304 n_added_paths: 22
at 22 zero_duals: 4
at22, LP obj: 8.013451837617103 n_added_paths: 7
at 22 zero_duals: 6
Switching to elementary pricing
at22, LP obj: 8.012037833190027 n_added_paths: 10
Gap too small = 0, stopping pricing with lb = 8
at 24 zero_duals: 12
Switching to elementary pricing
at24, LP obj: 8.016666666666666 n_added_paths: 6
Gap too small = 0, stopping pricing with lb = 8
Gap too small = 0, stopping pricing with lb = 8
at 23 zero_duals: 7
at23, LP obj: 8.01 n_added_paths: 4
at 23 zero_duals: 8
at23, LP obj: 8.01 n_added_paths: 1
at 23 zero_duals: 7
at23, LP obj: 8.01 n_added_paths: 1
at 23 zero_duals: 10
Switching to elementary pricing
at23, LP obj: 8.01 n_added_paths: 13
Gap too small = 0, stopping pricing with lb = 8
at 30 zero_duals: 7
Switching to elementary pricing
at30, LP obj: 8.013297872340425 n_added_paths: 12
at 30 zero_duals: 6
Switching to elementary pricing
at30, LP obj: 8.01179245283019 n_added_paths: 6
Gap too small = 0, stopping pricing with lb = 8
at 32 zero_duals: 8
Switching to elementary pricing
at32, LP obj: 8.010135135135135 n_added_paths: 3
Gap too small = 0, stopping pricing with lb = 8
Gap too small = 0, stopping pricing with lb = 8
Gap too small = 0, stopping pricing with lb = 8
at 38 zero_duals: 6
Switching to elementary pricing
at38, LP obj: 8.038461538461538 n_added_paths: 9
at 38 zero_duals: 9
Switching to elementary pricing
at38, LP obj: 8.022727272727273 n_added_paths: 3
at 38 zero_duals: 8
Switching to elementary pricing
at38, LP obj: 8.022727272727273 n_added_paths: 4
at 38 zero_duals: 9
Switching to elementary pricing
at38, LP obj: 8.022727272727273 n_added_paths: 0
updated lowerbound from 8.0 to 9
at 39 zero_duals: 13
Switching to elementary pricing
at39, LP obj: 8.03125 n_added_paths: 0
updated lowerbound from 8.0 to 9
at 37 zero_duals: 7
at37, LP obj: 8.0625 n_added_paths: 12
at 37 zero_duals: 8
Switching to elementary pricing
at37, LP obj: 8.030674846625766 n_added_paths: 1
updated lowerbound from 8.0 to 9
at 35 zero_duals: 12
Switching to elementary pricing
at35, LP obj: 8.0625 n_added_paths: 21
at 35 zero_duals: 11
Switching to elementary pricing
at35, LP obj: 8.054347826086957 n_added_paths: 3
at 35 zero_duals: 11
Switching to elementary pricing
at35, LP obj: 8.053030303030303 n_added_paths: 2
at 35 zero_duals: 10
Switching to elementary pricing
at35, LP obj: 8.053030303030303 n_added_paths: 3
at 35 zero_duals: 11
Switching to elementary pricing
at35, LP obj: 8.05 n_added_paths: 0
updated lowerbound from 8.0 to 9
at 33 zero_duals: 47
Switching to elementary pricing
at33, LP obj: 1e+20 n_added_paths: 0
updated lowerbound from 8.0 to 100000000000000000000
at 31 zero_duals: 15
Switching to elementary pricing
at31, LP obj: 8.05 n_added_paths: 0
updated lowerbound from 8.0 to 9
Gap too small = 0, stopping pricing with lb = 8
Gap too small = 0, stopping pricing with lb = 8
at 27 zero_duals: 14
Switching to elementary pricing
at27, LP obj: 8.05 n_added_paths: 4
at 27 zero_duals: 12
Switching to elementary pricing
at27, LP obj: 8.034090909090908 n_added_paths: 2
updated lowerbound from 8.0 to 9
Gap too small = 0, stopping pricing with lb = 8
at 44 zero_duals: 12
Switching to elementary pricing
at44, LP obj: 8.016666666666667 n_added_paths: 22
at 44 zero_duals: 12
at44, LP obj: 8.016666666666666 n_added_paths: 9
Gap too small = 0, stopping pricing with lb = 8
Best solution found:
t_[39, 37, 9, 14, 23, 24, 22, 16, 1, 39] 1.0 1.0
checking cycle [39, 37, 9, 14, 23, 24, 22, 16, 1, 39]
[39, 37, 9, 14, 23, 24, 22, 16, 1, 39] 272 272
[43, 13, 43] 1.0 1.0
checking cycle [43, 13, 43]
[43, 13, 43] 245 226
[41, 29, 6, 33, 10, 26, 35, 41] 1.0 1.0
checking cycle [41, 29, 6, 33, 10, 26, 35, 41]
[41, 29, 6, 33, 10, 26, 35, 41] 256 236
[42, 31, 0, 30, 27, 42] 1.0 1.0
checking cycle [42, 31, 0, 30, 27, 42]
[42, 31, 0, 30, 27, 42] 249 223
[36, 3, 11, 20, 34, 32, 36] 1.0 1.0
checking cycle [36, 3, 11, 20, 34, 32, 36]
[36, 3, 11, 20, 34, 32, 36] 281 265
[47, 4, 19, 46, 28, 45, 47] 1.0 1.0
checking cycle [47, 4, 19, 46, 28, 45, 47]
[47, 4, 19, 46, 28, 45, 47] 226 226
[44, 5, 12, 38, 17, 7, 21, 25, 44] 1.0 1.0
checking cycle [44, 5, 12, 38, 17, 7, 21, 25, 44]
[44, 5, 12, 38, 17, 7, 21, 25, 44] 243 237
[40, 8, 2, 18, 15, 40] 1.0 1.0
checking cycle [40, 8, 2, 18, 15, 40]
[40, 8, 2, 18, 15, 40] 270 270
